(set-logic QF_S)
(declare-fun var0 () String)
(declare-fun var1 () String)
(declare-fun var2 () String)
(declare-fun var3 () Int)
(declare-fun var4 () Int)
(declare-fun var5 () Int)
(declare-fun var6 () Bool)
(declare-fun var7 () Bool)
(declare-fun var8 () Bool)
(assert (str.prefixof var0 var0))
(assert (not (> (str.len var2) (str.indexof var2 var2 var5))))
(assert (str.prefixof (str.at var1 7) (str.replace var1 var0 var2)))
(assert (str.suffixof (str.replace "I=""7:yG)BX" var1 var0) (str.replace (str.at var0 var3) (str.replace var0 var1 var2) (str.replace var1 var1 var1))))
(check-sat)